 &input
   fildyn='matdyn'
   flfrc='He.fc'
   zasr = 'crystal'
 /
