He1
4.269846215104924
  -0.5    0.0    0.5
   0.0    0.5    0.5
  -0.5    0.5    0.0
He
1
direct
   0.0000000000000000    0.0000000000000000    0.0000000000000000 He
